NAME: test34
TYPE: TSP
DIMENSION: 10
EDGE_WEIGHT_TYPE: EUC_2D
NODE_COORD_SECTION
1 22.148302400297403 66.03727413103333
2 41.528262319887475 4.5240983628283775
3 23.926907465067128 59.68838444906166
4 26.548606191223755 37.738090670173605
5 55.576104807945235 34.43023095912905
6 60.995139075188206 19.876093059234613
7 60.67541819616377 71.54191921251015
8 76.14571841381924 97.72973600932421
9 21.52806929143104 27.785629720106787
10 89.35719356666748 65.54941278560936
EOF
